benchmarks_vrp/CMT3/tsp_classic/CMT3_4.vrp
NAME: CMT3_4
TYPE: CVRP
COMMENT: 826.14 - Cluster Nr.4
DIMENSION: 13
CAPACITY: 200
EDGE_WEIGHT_TYPE: EUC_2D
NODE_COORD_TYPE: TWOD_COORDS
NODE_COORD_SECTION: 
6 15 60
12 31 67
3 15 77
11 35 35
4 2 60
9 27 69
2 10 43
5 6 68
8 13 52
10 2 48
7 20 65
13 8 56
1 35 69
DEPOT_SECTION: 
11
-1
DEMAND_SECTION: 
7 12
5 30
2 9
1 23
12 3
6 17
3 9
13 27
4 5
8 36
11 0
10 1
9 10
EOF
