benchmarks_vrp/CMT3/tsp_classic/CMT3_4.tour
NAME: CMT3_4 solution
TYPE: TOUR
TOUR_SECTION:
11 2 10 13 4 5 3 9 1 12 7 6 8 -1
-1
EOF